001 001 000 000 000 000 000 000 000 001 003 004 001 001 001 001 002 005 004 015 018 006 006 006 004 002 003 004 004 002 002
001 001 001 000 000 000 000 000 000 001 002 000 000 000 000 001 001 004 003 008 009 007 005 007 004 003 003 004 004 003 002
001 001 000 000 000 000 000 000 000 000 001 000 000 000 000 001 001 001 005 004 006 007 007 006 004 003 002 004 006 003 002
000 000 000 000 000 000 000 000 000 001 001 000 000 000 000 001 002 001 003 002 010 008 006 006 003 002 002 003 005 002 002
000 000 000 000 000 000 000 000 000 001 000 001 001 001 000 001 001 002 002 002 005 004 005 005 003 002 002 002 003 003 001
000 000 000 000 000 000 000 000 000 001 000 001 001 002 001 001 001 002 002 002 003 004 005 005 002 002 002 002 003 003 002
000 001 001 000 000 000 000 000 001 001 000 000 000 001 003 001 001 001 002 003 002 005 011 004 002 002 002 -99 002 001 001
000 001 001 000 000 000 001 000 000 001 001 001 000 002 001 001 001 003 004 005 002 004 012 005 003 003 002 002 002 001 001
000 002 000 000 000 000 001 000 001 002 001 001 001 001 000 000 001 003 007 005 002 005 002 003 003 004 003 002 002 001 001
001 001 000 000 000 000 000 001 002 002 003 001 001 001 000 000 001 002 003 005 003 003 002 002 002 004 009 002 002 000 000
001 000 000 001 000 000 000 000 001 002 002 002 003 001 001 000 000 000 004 003 003 003 002 002 002 005 005 002 001 000 000
000 000 000 000 000 000 000 000 002 005 003 003 001 001 001 000 000 000 003 005 003 003 001 002 004 003 002 003 001 001 001
000 000 000 000 000 000 000 001 002 006 008 007 002 001 002 000 000 000 002 001 001 002 001 002 003 003 003 001 001 002 001
001 000 000 000 000 000 000 001 003 005 008 011 006 004 002 001 000 000 001 001 001 001 001 002 003 003 003 003 003 001 002
001 000 000 000 000 000 000 000 001 004 005 007 006 004 005 002 000 000 001 001 000 000 002 002 004 003 002 002 002 001 001
001 000 000 000 000 000 000 002 003 004 007 003 002 003 002 000 000 000 001 001 000 000 001 002 004 003 003 002 004 002 002
001 001 001 000 000 000 000 002 004 005 005 004 003 002 001 000 000 000 000 000 000 000 000 001 004 004 008 006 005 007 003
000 001 000 000 000 000 000 000 003 003 002 002 002 001 000 001 000 000 000 000 000 000 000 001 004 005 009 009 009 009 006
000 000 000 000 000 000 000 001 002 000 002 002 001 000 000 000 000 000 000 000 000 000 000 002 006 007 020 015 015 016 021
000 000 000 000 000 000 000 001 001 000 001 002 000 001 000 000 000 000 001 000 000 000 001 -99 008 007 013 015 019 020 040
000 000 000 000 000 001 001 001 000 000 001 002 000 001 000 000 000 000 000 000 000 000 001 007 011 010 008 009 017 023 030
000 000 000 001 001 001 002 001 001 001 001 002 001 002 000 000 000 000 000 000 000 000 002 006 012 009 008 008 014 019 029
000 000 001 001 002 002 002 001 001 001 002 003 002 002 000 000 000 000 000 000 000 000 003 008 013 008 007 006 010 014 025
000 000 001 001 001 005 002 001 002 002 006 004 003 002 000 000 000 000 000 000 000 000 003 011 014 007 -99 -99 -99 013 021
000 000 000 000 001 001 001 001 001 002 003 003 005 003 000 000 000 000 001 000 000 000 002 012 015 006 -99 -99 -99 015 018
000 000 000 000 000 000 000 000 001 003 003 004 005 004 000 000 000 001 001 001 000 000 000 013 020 -99 -99 -99 011 012 009
000 000 000 000 000 000 000 000 001 003 002 001 001 000 000 000 000 002 005 002 000 000 000 009 009 -99 -99 -99 011 011 010
000 000 001 000 000 000 000 001 000 003 001 000 001 000 000 000 000 013 006 001 000 000 000 004 005 -99 007 -99 006 007 008
000 000 001 000 000 000 000 000 000 002 001 000 000 000 000 000 000 005 005 002 001 001 -99 006 012 015 010 007 006 006 006
000 000 001 001 000 000 000 000 000 001 000 000 000 000 000 000 000 002 003 002 002 004 006 009 012 017 010 007 005 007 005
000 000 000 000 000 000 000 000 000 000 000 000 000 000 000 000 000 000 001 005 004 010 010 009 009 013 008 007 005 008 004
001 000 000 000 000 000 000 000 000 000 000 000 000 000 000 000 000 000 001 002 003 012 013 011 007 007 009 007 008 005 002
001 000 000 000 000 000 000 000 000 000 000 000 000 000 000 000 000 000 001 001 003 010 013 009 007 007 004 004 004 003 001
000 000 000 000 000 000 000 000 000 000 000 000 001 000 001 000 000 000 000 000 001 006 004 006 006 007 004 002 002 003 001
000 000 000 000 000 000 000 000 000 000 000 000 001 000 001 000 000 -99 000 000 000 002 003 005 005 005 004 002 002 003 001
000 000 000 000 000 000 000 000 000 000 000 000 000 000 000 000 000 -99 000 000 000 001 005 007 007 004 004 001 001 001 000
000 000 000 000 000 000 000 000 000 000 000 000 000 000 000 000 000 -99 000 000 000 001 004 015 012 004 003 001 001 000 000
000 000 000 000 000 000 -99 000 000 000 000 000 000 000 000 000 000 000 000 000 000 001 004 014 004 002 002 000 000 000 000
000 000 000 000 000 000 -99 -99 -99 000 -99 000 000 000 000 000 000 000 000 000 000 000 003 009 003 002 001 000 000 000 000
000 000 000 000 000 000 000 -99 -99 000 000 000 000 000 000 000 000 000 000 000 000 000 002 003 003 002 001 000 000 000 000
000 000 000 000 000 000 000 000 000 000 000 000 000 000 000 000 000 000 000 000 000 000 000 002 003 003 002 000 000 000 000
000 000 001 000 000 000 000 000 000 000 000 000 000 000 000 000 000 000 000 000 000 000 000 001 007 006 003 002 001 000 000
000 000 000 000 000 000 000 000 000 000 000 000 000 000 000 000 000 000 000 000 000 000 000 002 003 003 001 002 002 001 000
000 000 000 000 000 000 000 000 000 001 000 000 000 000 000 000 000 000 000 000 000 000 000 001 002 002 001 001 001 001 001
000 000 000 000 000 000 000 000 001 002 001 001 000 000 000 000 000 000 000 000 000 000 000 001 002 000 000 000 000 -99 000
000 -99 000 000 000 000 001 001 003 002 002 004 002 000 000 000 000 000 000 000 000 000 001 001 001 000 000 000 -99 -99 000
000 -99 000 000 000 000 001 001 001 004 006 007 002 000 000 000 000 000 000 000 000 001 001 000 000 001 000 -99 -99 -99 001
000 -99 000 000 000 000 000 001 002 004 009 006 001 000 000 000 000 000 002 000 000 001 002 000 000 002 000 -99 -99 -99 000
-99 -99 000 000 000 000 001 001 002 003 005 004 001 001 001 001 000 000 001 000 000 000 000 000 001 002 001 000 -99 -99 000
-99 -99 000 000 000 001 002 004 003 002 001 003 001 001 002 000 001 000 000 000 000 000 000 000 000 000 000 000 -99 -99 000
-99 -99 000 000 000 001 002 003 005 002 002 001 001 002 002 000 001 001 000 000 000 002 001 000 001 -99 000 -99 -99 -99 000
-99 -99 000 000 000 001 002 006 006 001 001 002 001 001 001 001 001 001 000 000 001 001 001 -99 -99 000 000 -99 000 000 -99
-99 -99 000 000 000 001 003 005 007 003 003 003 001 001 001 000 001 001 003 000 003 001 -99 -99 000 -99 -99 000 000 000 -99
-99 -99 -99 000 000 000 002 003 006 004 005 004 002 002 001 000 002 004 004 002 001 000 000 000 000 -99 000 000 001 000 000
-99 -99 -99 -99 000 000 001 004 005 006 009 006 004 002 001 001 001 006 007 006 000 000 000 000 001 000 000 000 001 000 000
